(set-info :status unsat)
(set-logic QF_NRA)
(set-info :source | KeYmaera example: FTRM-agree-mutual2-all, node 3451 For more info see: @see "Andre Platzer and Edmund M.0 Clarke.0 Formal verification of curved flight collision avoidance maneuvers: A case study.0 In Ana Cavalcanti and Dennis Dams, editors, 16th International Symposium on Formal Methods, FM, Eindhoven, Netherlands, Proceedings, volume 5850 of LNCS, pages 547-562.0 Springer, 2009."|)
(set-info :smt-lib-version 2.0)
(declare-fun d1 () Real)
(declare-fun d2 () Real)
(declare-fun e1 () Real)
(declare-fun e2 () Real)
(declare-fun luscore0dollarskuscore3 () Real)
(declare-fun y1 () Real)
(declare-fun ruscore1dollarskuscore3 () Real)
(declare-fun y2 () Real)
(declare-fun omuscore1dollarskuscore3 () Real)
(declare-fun x2 () Real)
(declare-fun x1 () Real)
(assert (not (=> (and (and (and (and (and (and (and (and (= (* (* ruscore1dollarskuscore3 omuscore1dollarskuscore3) (* ruscore1dollarskuscore3 omuscore1dollarskuscore3)) (+ (* e1 e1) (* e2 e2))) (= (* (* ruscore1dollarskuscore3 omuscore1dollarskuscore3) (* ruscore1dollarskuscore3 omuscore1dollarskuscore3)) (+ (* d1 d1) (* d2 d2)))) (= (+ (* (- y1 (+ x1 (* luscore0dollarskuscore3 d1))) (- y1 (+ x1 (* luscore0dollarskuscore3 d1)))) (* (- y2 (+ x2 (* luscore0dollarskuscore3 d2))) (- y2 (+ x2 (* luscore0dollarskuscore3 d2))))) (* 3.0 (* ruscore1dollarskuscore3 ruscore1dollarskuscore3)))) (= (+ (* (- x1 (+ x1 (* luscore0dollarskuscore3 d1))) (- x1 (+ x1 (* luscore0dollarskuscore3 d1)))) (* (- x2 (+ x2 (* luscore0dollarskuscore3 d2))) (- x2 (+ x2 (* luscore0dollarskuscore3 d2))))) (* 3.0 (* ruscore1dollarskuscore3 ruscore1dollarskuscore3)))) (>= ruscore1dollarskuscore3 0.0)) (= (+ (* d1 d1) (* d2 d2)) (+ (* e1 e1) (* e2 e2)))) (> luscore0dollarskuscore3 0)) (= (+ x1 (* luscore0dollarskuscore3 d1)) (+ y1 (* luscore0dollarskuscore3 e1)))) (= (+ x2 (* luscore0dollarskuscore3 d2)) (+ y2 (* luscore0dollarskuscore3 e2)))) (>= luscore0dollarskuscore3 0))))
(check-sat)

